/* set of agents */
set I := 1 2 3 4 5 6 7 8;

/* set of tasks */
set J := 1 2 3 4 5 6 7 8;

param C : 1  2  3  4  5  6  7  8 :=
      1  13 21 20 12  8 26 22 11
      2  12 36 25 41 40 11  4  8
      3  35 32 13 36 26 21 13 37
      4  34 54  7  8 12 22 11 40
      5  21  6 45 18 24 34 12 48
      6  42 19 39 15 14 16 28 46
      7  16 34 38  3 34 40 22 24
      8  26 20  5 17 45 31 37 43 ;

